(declare-const rho_Bool (Array String Bool))
(declare-const rho_1 (Array String (_ BitVec 1)))
(declare-const rho_8 (Array String (_ BitVec 8)))
(declare-const rho_16 (Array String (_ BitVec 16)))
(declare-const rho_32 (Array String (_ BitVec 32)))
(declare-const rho_64 (Array String (_ BitVec 64)))

(declare-const rho_new_Bool (Array String Bool))
(declare-const rho_new_32 (Array String (_ BitVec 32)))

